\ Model Routes
\ LP format - for model browsing. Use MPS format to capture full model detail.
Maximize
  - 191.7153353028244 R{0,0} + 623.2046552982704 R{0,1}
   + 623.2046552982704 R{0,2} - 249.2301939667805 R{0,3}
   + 234.7650315204939 R{0,4} + 397.2891588355392 R{0,5}
   + 449.0745601781551 R{0,6} + 333.5762507790057 R{0,7}
   + 141.3523432138046 R{0,8} + 775.8297878056061 R{0,9}
   + 1215.404539727916 R{0,10} + 368.3846205900942 R{0,11}
   + 238.1771325924929 R{0,12} + 351.5833382601838 R{0,13}
   + 591.1967390377928 R{0,14} + 663.8566268673392 R{0,15}
   + 1197.736002124991 R{0,16} + 577.8421868511019 R{0,17}
   + 309.0836016872903 R{0,18} + 323.3850090951998 R{0,19}
   + 277.7554696572682 R{0,20} + 449.9702014347512 R{0,21}
   + 66.10399239495933 R{0,22} - 135.6879661331237 R{0,23}
   + 827.8992369343669 R{0,24} - 294.3819613871802 R{0,25}
   + 188.2601914164071 R{0,26} + 979.0989367963093 R{0,27}
   - 294.3819613871802 R{0,28} - 256.140831891889 R{1,0}
   - 58.16416216887956 R{1,1} + 669.0062570112706 R{1,2}
   + 210.0263485663593 R{1,3} + 1344.562926826985 R{1,4}
   + 1143.230327072986 R{1,5} + 282.7357788452937 R{1,6}
   + 844.0822459345284 R{1,7} + 246.32965578047 R{1,8}
   + 93.14254521504336 R{1,9} + 1795.433094216974 R{1,10}
   + 268.9583331189546 R{1,11} + 1055.863609267606 R{1,12}
   + 785.351772178469 R{1,13} + 1266.720960403989 R{1,14}
   + 587.3727382323488 R{1,15} + 486.266625123905 R{1,16}
   + 759.9595552963458 R{1,17} + 674.4280069417854 R{1,18}
   + 447.5996190802782 R{1,19} + 770.0643284045032 R{1,20}
   + 466.1780316334841 R{1,21} + 801.2254383072091 R{1,22}
   + 981.1368146714012 R{1,23} + 533.8286173965482 R{1,24}
   + 350.1605932839503 R{1,25} + 1100.450515162164 R{1,26}
   + 950.4073836618113 R{1,27} + 533.8286173965482 R{1,28}
   + 764.6492483187186 R{2,0} + 764.6492483187186 R{2,1}
   - 278.4443928850388 R{2,2} - 59.13410337035452 R{2,3}
   + 602.7748664658451 R{2,4} + 1100.505917706273 R{2,5}
   + 832.465065802254 R{2,6} + 591.0325885092791 R{2,7}
   + 731.2957601145249 R{2,8} + 644.4168851140871 R{2,9}
   + 381.1335891975815 R{2,10} + 157.4662907254282 R{2,11}
   + 583.9016471087054 R{2,12} + 1214.021468281218 R{2,13}
   - 13.86653937796913 R{2,14} + 767.6248361423172 R{2,15}
   + 833.6968233841831 R{2,16} + 157.4662907254282 R{2,17}
   + 597.125954641375 R{2,18} - 199.8474658350585 R{2,19}
   + 455.6754998901811 R{2,20} + 607.3440192925289 R{2,21}
   + 534.5418076195608 R{2,22} + 86.32138704705176 R{2,23}
   + 584.6378416321991 R{2,24} + 383.5187138802768 R{2,25}
   + 639.7515185088203 R{2,26} + 465.2175846111744 R{2,27}
   + 513.3404883564156 R{2,28} + 1127.126554447374 R{2,29}
   - 260.2482995389823 R{3,0} + 681.6721973521264 R{3,1}
   + 1049.613160618656 R{3,2} + 1410.615877888776 R{3,3}
   + 1013.070360991709 R{3,4} + 647.1509294245105 R{3,5}
   + 1443.160031768226 R{3,6} + 804.9278823330262 R{3,7}
   + 1520.626572684891 R{3,8} + 237.5554552558926 R{3,9}
   + 1420.699460584705 R{3,10} + 631.4408597675855 R{3,11}
   + 1105.312732173817 R{3,12} + 1560.195329005739 R{3,13}
   + 1501.153745395162 R{3,14} + 1782.845447729711 R{3,15}
   + 1541.245424254942 R{3,16} + 1354.652907442916 R{3,17}
   + 1092.642387005372 R{3,18} + 596.2223411383756 R{3,19}
   + 924.1863369650953 R{3,20} + 1806.511839361399 R{3,21}
   + 506.3836683923992 R{3,22} + 1286.558261960309 R{3,23}
   + 420.2498958530415 R{3,24} + 1323.945133142532 R{3,25}
   + 824.3493902071639 R{3,26} + 1291.534933548178 R{3,27}
   + 1206.948360344684 R{3,28} + 1339.030969163582 R{3,29}
   + 1148.688659463146 R{3,30} + 857.9579296258469 R{3,31}
   + 1349.334349938067 R{3,32} + 441.6331291962429 R{3,33}
   + 1066.085991714454 R{3,34} + 1301.191625200795 R{3,35}
   + 1513.067183091893 R{3,36} + 452.3980126842633 R{3,37}
   + 981.4529511191313 R{3,38} + 936.8792342188087 R{3,39}
   + 1361.09945385065 R{3,40} + 1458.125770032203 R{3,41}
   + 1361.09945385065 R{3,42} - 242.5208875955131 R{4,0}
   + 1055.572474837385 R{4,1} + 1576.196574514046 R{4,2}
   + 1497.105246971943 R{4,3} + 1518.476392418149 R{4,4}
   + 823.1245631264549 R{4,5} + 1176.459096619492 R{4,6}
   + 1521.595839570552 R{4,7} + 1142.842525128591 R{4,8}
   + 586.4663520197037 R{4,9} + 854.1891856610903 R{4,10}
   + 1367.427046403476 R{4,11} + 1307.4382593896 R{4,12}
   + 947.2698106696957 R{4,13} + 961.8125665173498 R{4,14}
   + 1427.515206076762 R{4,15} + 463.8370710809047 R{4,16}
   + 1926.970733765133 R{4,17} + 1522.680471216277 R{4,18}
   + 1256.594943857116 R{4,19} + 763.3066596538706 R{4,20}
   + 1649.602960044065 R{4,21} + 1496.192386219484 R{4,22}
   + 1269.312261964853 R{4,23} + 1068.040119475903 R{4,24}
   + 1975.768087356864 R{4,25} + 1251.293649597822 R{4,26}
   + 1505.605722607475 R{4,27} + 1797.292533196667 R{4,28}
   + 1824.866421794783 R{4,29} + 1566.530819494398 R{4,30}
   + 2219.72361468683 R{4,31} + 2070.972973302055 R{4,32}
   + 1299.943551070525 R{4,33} + 2007.581175792739 R{4,34}
   + 623.6138547481382 R{4,35} + 2160.919741276397 R{4,36}
   + 934.2269218735173 R{4,37} + 1667.939716016702 R{4,38}
   + 797.6470399928912 R{4,39} + 1551.70720383368 R{4,40}
   + 1998.908607267452 R{4,41} + 2306.714941183092 R{4,42}
   + 1941.811226285215 R{4,43} + 1327.387370308742 R{4,44}
   + 1957.495649174484 R{4,45} + 2855.715656919269 R{4,46}
   + 2323.277897275887 R{4,47} + 2112.334079771597 R{4,48}
   + 1747.640735344316 R{4,49} + 1416.361365724939 R{4,50}
   + 1438.077940538629 R{4,51} + 2546.110850082531 R{4,52}
   + 1778.449606535102 R{4,53} + 1407.073863385408 R{4,54}
   + 1598.700038774788 R{4,55} - 231.9775664337766 R{5,0}
   + 40.49903117334031 R{5,1} + 364.0546919427258 R{5,2}
   + 653.1102451903104 R{5,3} + 486.0451572583681 R{5,4}
   + 995.366329020844 R{5,5} + 676.3620618704418 R{5,6}
   + 620.2453090929894 R{5,7} + 1307.438895090492 R{5,8}
   + 93.70344007855562 R{5,9} + 1263.405322327046 R{5,10}
   + 797.1085756424015 R{5,11} + 1639.673675969595 R{5,12}
   + 191.083757725713 R{5,13} + 858.8796024095327 R{5,14}
   + 635.335568174465 R{5,15} + 1031.224029216522 R{5,16}
   + 1266.897027737139 R{5,17} + 848.6357759629896 R{5,18}
   + 1136.648049729039 R{5,19} + 382.2880612968968 R{5,20}
   + 792.1576839036792 R{5,21} + 899.2813196199791 R{5,22}
   + 451.6854499655012 R{5,23} + 930.8413287106086 R{5,24}
   + 892.5337153209884 R{5,25} + 1086.000088856125 R{5,26}
   + 1183.060313438792 R{5,27} + 348.693883816473 R{5,28}
   + 731.6211948315255 R{5,29} + 924.3764549961609 R{5,30}
   + 579.8922048507003 R{5,31} - 231.1436095783099 R{6,0}
   + 352.5135528432641 R{6,1} + 942.3911695026381 R{6,2}
   + 1507.536530245978 R{6,3} + 565.1746606882502 R{6,4}
   + 1159.277695314713 R{6,5} + 816.9704722435263 R{6,6}
   + 1214.601124256143 R{6,7} + 1046.684837713365 R{6,8}
   + 1479.535535185277 R{6,9} + 1736.710018706744 R{6,10}
   + 745.4943235440028 R{6,11} + 1748.580100781274 R{6,12}
   + 2176.61822821797 R{6,13} + 388.9203882075574 R{6,14}
   + 2103.957247816603 R{6,15} + 1172.485677629626 R{6,16}
   + 1750.907529344945 R{6,17} + 991.1118637480838 R{6,18}
   + 1381.288059258676 R{6,19} + 1005.781667088206 R{6,20}
   + 2057.650289913217 R{6,21} + 1952.962033874277 R{6,22}
   + 1647.966545259676 R{6,23} + 631.5778197675522 R{6,24}
   + 1650.040324717948 R{6,25} + 1550.81266516106 R{6,26}
   + 1210.53955287232 R{6,27} + 1769.86680540069 R{6,28}
   + 1645.623784642907 R{6,29} + 1365.932472363386 R{6,30}
   + 1437.844929567717 R{6,31} + 2996.237734738712 R{6,32}
   + 1220.318519468161 R{6,33} + 819.1348942133227 R{6,34}
   + 1407.405798822725 R{6,35} + 975.0208411933331 R{6,36}
   + 1816.430010745772 R{6,37} + 296.6320660559943 R{6,38}
   + 1138.515861629146 R{6,39} + 1222.364710422045 R{6,40}
   + 2101.586636469787 R{6,41} + 1343.5064311629 R{6,42}
   + 1144.203841710695 R{6,43} + 1924.539881397457 R{6,44}
   + 1463.530739896117 R{6,45} + 1376.807153645568 R{6,46}
   + 1566.9857788662 R{6,47} + 1242.104176017223 R{6,48}
   + 1097.787586417752 R{6,49} + 1719.049128214459 R{6,50}
   + 1062.010415924805 R{6,51} + 936.8782719077874 R{6,52}
   + 1395.652628434884 R{6,53} + 1420.946170614709 R{6,54}
Subject To
 R00: R{0,0} <= 1
 R01: R{0,1} <= 1
 R02: R{0,2} <= 1
 R03: R{0,3} <= 1
 R04: R{0,4} <= 1
 R05: R{0,5} <= 1
 R06: R{0,6} <= 1
 R07: R{0,7} <= 1
 R08: R{0,8} <= 1
 R09: R{0,9} <= 1
 R010: R{0,10} <= 1
 R011: R{0,11} <= 1
 R012: R{0,12} <= 1
 R013: R{0,13} <= 1
 R014: R{0,14} <= 1
 R015: R{0,15} <= 1
 R016: R{0,16} <= 1
 R017: R{0,17} <= 1
 R018: R{0,18} <= 1
 R019: R{0,19} <= 1
 R020: R{0,20} <= 1
 R021: R{0,21} <= 1
 R022: R{0,22} <= 1
 R023: R{0,23} <= 1
 R024: R{0,24} <= 1
 R025: R{0,25} <= 1
 R026: R{0,26} <= 1
 R027: R{0,27} <= 1
 R028: R{0,28} <= 1
 R029: R{1,0} <= 1
 R030: R{1,1} <= 1
 R031: R{1,2} <= 1
 R032: R{1,3} <= 1
 R033: R{1,4} <= 1
 R034: R{1,5} <= 1
 R035: R{1,6} <= 1
 R036: R{1,7} <= 1
 R037: R{1,8} <= 1
 R038: R{1,9} <= 1
 R039: R{1,10} <= 1
 R040: R{1,11} <= 1
 R041: R{1,12} <= 1
 R042: R{1,13} <= 1
 R043: R{1,14} <= 1
 R044: R{1,15} <= 1
 R045: R{1,16} <= 1
 R046: R{1,17} <= 1
 R047: R{1,18} <= 1
 R048: R{1,19} <= 1
 R049: R{1,20} <= 1
 R050: R{1,21} <= 1
 R051: R{1,22} <= 1
 R052: R{1,23} <= 1
 R053: R{1,24} <= 1
 R054: R{1,25} <= 1
 R055: R{1,26} <= 1
 R056: R{1,27} <= 1
 R057: R{1,28} <= 1
 R058: R{2,0} <= 1
 R059: R{2,1} <= 1
 R060: R{2,2} <= 1
 R061: R{2,3} <= 1
 R062: R{2,4} <= 1
 R063: R{2,5} <= 1
 R064: R{2,6} <= 1
 R065: R{2,7} <= 1
 R066: R{2,8} <= 1
 R067: R{2,9} <= 1
 R068: R{2,10} <= 1
 R069: R{2,11} <= 1
 R070: R{2,12} <= 1
 R071: R{2,13} <= 1
 R072: R{2,14} <= 1
 R073: R{2,15} <= 1
 R074: R{2,16} <= 1
 R075: R{2,17} <= 1
 R076: R{2,18} <= 1
 R077: R{2,19} <= 1
 R078: R{2,20} <= 1
 R079: R{2,21} <= 1
 R080: R{2,22} <= 1
 R081: R{2,23} <= 1
 R082: R{2,24} <= 1
 R083: R{2,25} <= 1
 R084: R{2,26} <= 1
 R085: R{2,27} <= 1
 R086: R{2,28} <= 1
 R087: R{2,29} <= 1
 R088: R{3,0} <= 1
 R089: R{3,1} <= 1
 R090: R{3,2} <= 1
 R091: R{3,3} <= 1
 R092: R{3,4} <= 1
 R093: R{3,5} <= 1
 R094: R{3,6} <= 1
 R095: R{3,7} <= 1
 R096: R{3,8} <= 1
 R097: R{3,9} <= 1
 R098: R{3,10} <= 1
 R099: R{3,11} <= 1
 R0100: R{3,12} <= 1
 R0101: R{3,13} <= 1
 R0102: R{3,14} <= 1
 R0103: R{3,15} <= 1
 R0104: R{3,16} <= 1
 R0105: R{3,17} <= 1
 R0106: R{3,18} <= 1
 R0107: R{3,19} <= 1
 R0108: R{3,20} <= 1
 R0109: R{3,21} <= 1
 R0110: R{3,22} <= 1
 R0111: R{3,23} <= 1
 R0112: R{3,24} <= 1
 R0113: R{3,25} <= 1
 R0114: R{3,26} <= 1
 R0115: R{3,27} <= 1
 R0116: R{3,28} <= 1
 R0117: R{3,29} <= 1
 R0118: R{3,30} <= 1
 R0119: R{3,31} <= 1
 R0120: R{3,32} <= 1
 R0121: R{3,33} <= 1
 R0122: R{3,34} <= 1
 R0123: R{3,35} <= 1
 R0124: R{3,36} <= 1
 R0125: R{3,37} <= 1
 R0126: R{3,38} <= 1
 R0127: R{3,39} <= 1
 R0128: R{3,40} <= 1
 R0129: R{3,41} <= 1
 R0130: R{3,42} <= 1
 R0131: R{4,0} <= 1
 R0132: R{4,1} <= 1
 R0133: R{4,2} <= 1
 R0134: R{4,3} <= 1
 R0135: R{4,4} <= 1
 R0136: R{4,5} <= 1
 R0137: R{4,6} <= 1
 R0138: R{4,7} <= 1
 R0139: R{4,8} <= 1
 R0140: R{4,9} <= 1
 R0141: R{4,10} <= 1
 R0142: R{4,11} <= 1
 R0143: R{4,12} <= 1
 R0144: R{4,13} <= 1
 R0145: R{4,14} <= 1
 R0146: R{4,15} <= 1
 R0147: R{4,16} <= 1
 R0148: R{4,17} <= 1
 R0149: R{4,18} <= 1
 R0150: R{4,19} <= 1
 R0151: R{4,20} <= 1
 R0152: R{4,21} <= 1
 R0153: R{4,22} <= 1
 R0154: R{4,23} <= 1
 R0155: R{4,24} <= 1
 R0156: R{4,25} <= 1
 R0157: R{4,26} <= 1
 R0158: R{4,27} <= 1
 R0159: R{4,28} <= 1
 R0160: R{4,29} <= 1
 R0161: R{4,30} <= 1
 R0162: R{4,31} <= 1
 R0163: R{4,32} <= 1
 R0164: R{4,33} <= 1
 R0165: R{4,34} <= 1
 R0166: R{4,35} <= 1
 R0167: R{4,36} <= 1
 R0168: R{4,37} <= 1
 R0169: R{4,38} <= 1
 R0170: R{4,39} <= 1
 R0171: R{4,40} <= 1
 R0172: R{4,41} <= 1
 R0173: R{4,42} <= 1
 R0174: R{4,43} <= 1
 R0175: R{4,44} <= 1
 R0176: R{4,45} <= 1
 R0177: R{4,46} <= 1
 R0178: R{4,47} <= 1
 R0179: R{4,48} <= 1
 R0180: R{4,49} <= 1
 R0181: R{4,50} <= 1
 R0182: R{4,51} <= 1
 R0183: R{4,52} <= 1
 R0184: R{4,53} <= 1
 R0185: R{4,54} <= 1
 R0186: R{4,55} <= 1
 R0187: R{5,0} <= 1
 R0188: R{5,1} <= 1
 R0189: R{5,2} <= 1
 R0190: R{5,3} <= 1
 R0191: R{5,4} <= 1
 R0192: R{5,5} <= 1
 R0193: R{5,6} <= 1
 R0194: R{5,7} <= 1
 R0195: R{5,8} <= 1
 R0196: R{5,9} <= 1
 R0197: R{5,10} <= 1
 R0198: R{5,11} <= 1
 R0199: R{5,12} <= 1
 R0200: R{5,13} <= 1
 R0201: R{5,14} <= 1
 R0202: R{5,15} <= 1
 R0203: R{5,16} <= 1
 R0204: R{5,17} <= 1
 R0205: R{5,18} <= 1
 R0206: R{5,19} <= 1
 R0207: R{5,20} <= 1
 R0208: R{5,21} <= 1
 R0209: R{5,22} <= 1
 R0210: R{5,23} <= 1
 R0211: R{5,24} <= 1
 R0212: R{5,25} <= 1
 R0213: R{5,26} <= 1
 R0214: R{5,27} <= 1
 R0215: R{5,28} <= 1
 R0216: R{5,29} <= 1
 R0217: R{5,30} <= 1
 R0218: R{5,31} <= 1
 R0219: R{6,0} <= 1
 R0220: R{6,1} <= 1
 R0221: R{6,2} <= 1
 R0222: R{6,3} <= 1
 R0223: R{6,4} <= 1
 R0224: R{6,5} <= 1
 R0225: R{6,6} <= 1
 R0226: R{6,7} <= 1
 R0227: R{6,8} <= 1
 R0228: R{6,9} <= 1
 R0229: R{6,10} <= 1
 R0230: R{6,11} <= 1
 R0231: R{6,12} <= 1
 R0232: R{6,13} <= 1
 R0233: R{6,14} <= 1
 R0234: R{6,15} <= 1
 R0235: R{6,16} <= 1
 R0236: R{6,17} <= 1
 R0237: R{6,18} <= 1
 R0238: R{6,19} <= 1
 R0239: R{6,20} <= 1
 R0240: R{6,21} <= 1
 R0241: R{6,22} <= 1
 R0242: R{6,23} <= 1
 R0243: R{6,24} <= 1
 R0244: R{6,25} <= 1
 R0245: R{6,26} <= 1
 R0246: R{6,27} <= 1
 R0247: R{6,28} <= 1
 R0248: R{6,29} <= 1
 R0249: R{6,30} <= 1
 R0250: R{6,31} <= 1
 R0251: R{6,32} <= 1
 R0252: R{6,33} <= 1
 R0253: R{6,34} <= 1
 R0254: R{6,35} <= 1
 R0255: R{6,36} <= 1
 R0256: R{6,37} <= 1
 R0257: R{6,38} <= 1
 R0258: R{6,39} <= 1
 R0259: R{6,40} <= 1
 R0260: R{6,41} <= 1
 R0261: R{6,42} <= 1
 R0262: R{6,43} <= 1
 R0263: R{6,44} <= 1
 R0264: R{6,45} <= 1
 R0265: R{6,46} <= 1
 R0266: R{6,47} <= 1
 R0267: R{6,48} <= 1
 R0268: R{6,49} <= 1
 R0269: R{6,50} <= 1
 R0270: R{6,51} <= 1
 R0271: R{6,52} <= 1
 R0272: R{6,53} <= 1
 R0273: R{6,54} <= 1
 R1_0: R{0,0} + R{0,1} + R{0,2} + R{0,3} + R{0,4} + R{0,5} + R{0,6}
   + R{0,7} + R{0,8} + R{0,9} + R{0,10} + R{0,11} + R{0,12} + R{0,13}
   + R{0,14} + R{0,15} + R{0,16} + R{0,17} + R{0,18} + R{0,19} + R{0,20}
   + R{0,21} + R{0,22} + R{0,23} + R{0,24} + R{0,25} + R{0,26} + R{0,27}
   + R{0,28} <= 1
 R1_1: R{1,0} + R{1,1} + R{1,2} + R{1,3} + R{1,4} + R{1,5} + R{1,6}
   + R{1,7} + R{1,8} + R{1,9} + R{1,10} + R{1,11} + R{1,12} + R{1,13}
   + R{1,14} + R{1,15} + R{1,16} + R{1,17} + R{1,18} + R{1,19} + R{1,20}
   + R{1,21} + R{1,22} + R{1,23} + R{1,24} + R{1,25} + R{1,26} + R{1,27}
   + R{1,28} <= 1
 R1_2: R{2,0} + R{2,1} + R{2,2} + R{2,3} + R{2,4} + R{2,5} + R{2,6}
   + R{2,7} + R{2,8} + R{2,9} + R{2,10} + R{2,11} + R{2,12} + R{2,13}
   + R{2,14} + R{2,15} + R{2,16} + R{2,17} + R{2,18} + R{2,19} + R{2,20}
   + R{2,21} + R{2,22} + R{2,23} + R{2,24} + R{2,25} + R{2,26} + R{2,27}
   + R{2,28} + R{2,29} <= 1
 R1_3: R{3,0} + R{3,1} + R{3,2} + R{3,3} + R{3,4} + R{3,5} + R{3,6}
   + R{3,7} + R{3,8} + R{3,9} + R{3,10} + R{3,11} + R{3,12} + R{3,13}
   + R{3,14} + R{3,15} + R{3,16} + R{3,17} + R{3,18} + R{3,19} + R{3,20}
   + R{3,21} + R{3,22} + R{3,23} + R{3,24} + R{3,25} + R{3,26} + R{3,27}
   + R{3,28} + R{3,29} + R{3,30} + R{3,31} + R{3,32} + R{3,33} + R{3,34}
   + R{3,35} + R{3,36} + R{3,37} + R{3,38} + R{3,39} + R{3,40} + R{3,41}
   + R{3,42} <= 1
 R1_4: R{4,0} + R{4,1} + R{4,2} + R{4,3} + R{4,4} + R{4,5} + R{4,6}
   + R{4,7} + R{4,8} + R{4,9} + R{4,10} + R{4,11} + R{4,12} + R{4,13}
   + R{4,14} + R{4,15} + R{4,16} + R{4,17} + R{4,18} + R{4,19} + R{4,20}
   + R{4,21} + R{4,22} + R{4,23} + R{4,24} + R{4,25} + R{4,26} + R{4,27}
   + R{4,28} + R{4,29} + R{4,30} + R{4,31} + R{4,32} + R{4,33} + R{4,34}
   + R{4,35} + R{4,36} + R{4,37} + R{4,38} + R{4,39} + R{4,40} + R{4,41}
   + R{4,42} + R{4,43} + R{4,44} + R{4,45} + R{4,46} + R{4,47} + R{4,48}
   + R{4,49} + R{4,50} + R{4,51} + R{4,52} + R{4,53} + R{4,54} + R{4,55}
   <= 1
 R1_5: R{5,0} + R{5,1} + R{5,2} + R{5,3} + R{5,4} + R{5,5} + R{5,6}
   + R{5,7} + R{5,8} + R{5,9} + R{5,10} + R{5,11} + R{5,12} + R{5,13}
   + R{5,14} + R{5,15} + R{5,16} + R{5,17} + R{5,18} + R{5,19} + R{5,20}
   + R{5,21} + R{5,22} + R{5,23} + R{5,24} + R{5,25} + R{5,26} + R{5,27}
   + R{5,28} + R{5,29} + R{5,30} + R{5,31} <= 1
 R1_6: R{6,0} + R{6,1} + R{6,2} + R{6,3} + R{6,4} + R{6,5} + R{6,6}
   + R{6,7} + R{6,8} + R{6,9} + R{6,10} + R{6,11} + R{6,12} + R{6,13}
   + R{6,14} + R{6,15} + R{6,16} + R{6,17} + R{6,18} + R{6,19} + R{6,20}
   + R{6,21} + R{6,22} + R{6,23} + R{6,24} + R{6,25} + R{6,26} + R{6,27}
   + R{6,28} + R{6,29} + R{6,30} + R{6,31} + R{6,32} + R{6,33} + R{6,34}
   + R{6,35} + R{6,36} + R{6,37} + R{6,38} + R{6,39} + R{6,40} + R{6,41}
   + R{6,42} + R{6,43} + R{6,44} + R{6,45} + R{6,46} + R{6,47} + R{6,48}
   + R{6,49} + R{6,50} + R{6,51} + R{6,52} + R{6,53} + R{6,54} <= 1
 R2_0: 7 R{0,23} + 7 R{1,10} + 7 R{1,27} + 7 R{2,15} + 7 R{2,16}
   + 7 R{2,18} + 7 R{3,18} + 7 R{4,46} + 7 R{6,12} + 7 R{6,17} + 7 R{6,22}
   + 7 R{6,23} + 7 R{6,25} + 7 R{6,29} + 7 R{6,39} + 7 R{6,54} <= 7
 R2_1: 10 R{0,12} + 10 R{1,5} + 10 R{1,6} + 10 R{1,13} + 10 R{1,15}
   + 10 R{3,1} + 10 R{3,2} + 10 R{3,3} + 10 R{3,4} + 10 R{3,6} + 10 R{3,7}
   + 10 R{3,8} + 10 R{3,12} + 10 R{3,13} + 10 R{3,17} + 10 R{3,19}
   + 10 R{3,21} + 10 R{3,29} + 10 R{3,32} + 10 R{3,34} + 10 R{3,41}
   + 10 R{4,34} + 10 R{5,4} + 10 R{5,6} + 10 R{5,9} + 10 R{6,10}
   + 10 R{6,12} + 10 R{6,22} + 10 R{6,25} + 10 R{6,28} + 10 R{6,32}
   + 10 R{6,37} + 10 R{6,41} + 10 R{6,44} <= 10
 R2_2: <= 0
 R2_3: 4 R{3,26} + 4 R{4,52} + 4 R{5,1} + 4 R{5,2} + 4 R{5,3} + 4 R{5,4}
   + 4 R{5,8} + 4 R{5,9} + 4 R{5,10} + 4 R{5,11} + 4 R{5,12} + 4 R{5,13}
   + 4 R{5,14} + 4 R{5,15} + 4 R{5,18} + 4 R{5,27} + 4 R{5,28} + 4 R{6,28}
   + 4 R{6,41} + 4 R{6,44} <= 4
 R2_4: <= 0
 R2_5: 5 R{5,1} + 5 R{5,2} + 5 R{5,3} + 5 R{5,6} + 5 R{5,7} + 5 R{5,15}
   + 5 R{5,16} + 5 R{5,20} + 5 R{5,24} + 5 R{5,25} + 5 R{5,26} + 5 R{5,29}
   <= 5
 R2_6: 10 R{0,8} + 10 R{0,12} + 10 R{1,3} + 10 R{1,6} + 10 R{1,8}
   + 10 R{1,13} + 10 R{3,10} + 10 R{3,18} + 10 R{3,23} + 10 R{3,36}
   + 10 R{4,18} + 10 R{4,44} + 10 R{4,48} + 10 R{4,50} + 10 R{6,1}
   + 10 R{6,2} + 10 R{6,3} + 10 R{6,4} + 10 R{6,6} + 10 R{6,10}
   + 10 R{6,11} + 10 R{6,12} + 10 R{6,13} + 10 R{6,14} + 10 R{6,16}
   + 10 R{6,17} + 10 R{6,18} + 10 R{6,19} + 10 R{6,20} + 10 R{6,22}
   + 10 R{6,23} + 10 R{6,24} + 10 R{6,26} + 10 R{6,28} + 10 R{6,30}
   + 10 R{6,32} + 10 R{6,35} + 10 R{6,37} + 10 R{6,41} + 10 R{6,42}
   + 10 R{6,43} + 10 R{6,44} + 10 R{6,46} + 10 R{6,47} + 10 R{6,48}
   + 10 R{6,50} + 10 R{6,53} <= 10
 R2_7: <= 0
 R2_8: 9 R{4,21} + 9 R{4,44} + 9 R{4,55} <= 9
 R2_9: 12 R{0,15} + 12 R{2,14} + 12 R{2,16} + 12 R{4,1} + 12 R{4,2}
   + 12 R{4,3} + 12 R{4,4} + 12 R{4,5} + 12 R{4,7} + 12 R{4,8} + 12 R{4,9}
   + 12 R{4,11} + 12 R{4,15} + 12 R{4,16} + 12 R{4,17} + 12 R{4,19}
   + 12 R{4,20} + 12 R{4,22} + 12 R{4,23} + 12 R{4,24} + 12 R{4,25}
   + 12 R{4,26} + 12 R{4,27} + 12 R{4,28} + 12 R{4,29} + 12 R{4,31}
   + 12 R{4,32} + 12 R{4,33} + 12 R{4,34} + 12 R{4,35} + 12 R{4,36}
   + 12 R{4,37} + 12 R{4,38} + 12 R{4,41} + 12 R{4,43} + 12 R{4,45}
   + 12 R{4,47} + 12 R{4,48} + 12 R{4,49} + 12 R{4,50} + 12 R{4,53}
   + 12 R{6,29} + 12 R{6,33} + 12 R{6,34} + 12 R{6,45} + 12 R{6,54} <= 12
 R2_10: 8 R{0,7} + 8 R{1,12} + 8 R{2,15} + 8 R{6,1} + 8 R{6,2} + 8 R{6,3}
   + 8 R{6,4} + 8 R{6,5} + 8 R{6,6} + 8 R{6,7} + 8 R{6,9} + 8 R{6,13}
   + 8 R{6,15} + 8 R{6,19} + 8 R{6,20} + 8 R{6,21} + 8 R{6,24} + 8 R{6,26}
   + 8 R{6,27} + 8 R{6,30} + 8 R{6,32} + 8 R{6,42} + 8 R{6,43} + 8 R{6,46}
   + 8 R{6,50} + 8 R{6,52} <= 8
 R2_11: 15 R{0,7} + 15 R{0,11} + 15 R{0,13} + 15 R{0,15} + 15 R{0,18}
   + 15 R{0,20} + 15 R{0,21} + 15 R{0,22} + 15 R{2,12} + 15 R{2,15}
   + 15 R{2,16} + 15 R{2,20} + 15 R{2,21} + 15 R{2,22} + 15 R{2,24}
   + 15 R{2,26} + 15 R{4,10} + 15 R{4,12} + 15 R{4,13} + 15 R{4,14}
   + 15 R{4,18} + 15 R{4,21} + 15 R{4,30} + 15 R{4,39} + 15 R{4,40}
   + 15 R{4,42} + 15 R{4,44} + 15 R{4,51} + 15 R{4,52} + 15 R{4,54}
   + 15 R{4,55} + 15 R{6,18} + 15 R{6,27} + 15 R{6,34} + 15 R{6,36}
   + 15 R{6,39} + 15 R{6,45} + 15 R{6,47} + 15 R{6,48} + 15 R{6,49}
   + 15 R{6,53} <= 15
 R2_12: <= 0
 R2_13: <= 0
 R2_14: <= 0
 R2_15: 11 R{0,0} + 11 R{0,1} + 11 R{0,2} + 11 R{0,19} + 11 R{4,1}
   + 11 R{4,2} + 11 R{4,3} + 11 R{4,11} + 11 R{4,17} + 11 R{4,22}
   + 11 R{4,27} + 11 R{4,28} + 11 R{4,34} + 11 R{4,43} <= 11
 R2_16: 5 R{0,9} + 5 R{0,24} + 5 R{2,22} + 5 R{2,26} + 5 R{4,12}
   + 5 R{4,13} + 5 R{4,31} + 5 R{4,41} + 5 R{4,47} + 5 R{4,48} + 5 R{6,15}
   + 5 R{6,21} + 5 R{6,45} + 5 R{6,47} + 5 R{6,53} <= 5
 R2_17: 11 R{0,15} + 11 R{0,16} + 11 R{1,13} + 11 R{1,16} + 11 R{1,19}
   + 11 R{1,26} + 11 R{3,38} + 11 R{4,30} + 11 R{4,42} + 11 R{4,47}
   + 11 R{4,51} + 11 R{5,17} + 11 R{5,21} + 11 R{6,9} + 11 R{6,29}
   + 11 R{6,33} + 11 R{6,34} + 11 R{6,40} + 11 R{6,45} + 11 R{6,47}
   + 11 R{6,51} + 11 R{6,52} + 11 R{6,53} + 11 R{6,54} <= 11
 R2_18: 5 R{1,13} + 5 R{1,16} + 5 R{1,17} + 5 R{1,24} + 5 R{1,28}
   + 5 R{3,30} + 5 R{5,21} + 5 R{6,28} + 5 R{6,36} + 5 R{6,41} + 5 R{6,44}
   + 5 R{6,48} <= 5
 R2_19: 11 R{2,13} + 11 R{3,26} + 11 R{4,1} + 11 R{4,2} + 11 R{4,3}
   + 11 R{4,4} + 11 R{4,6} + 11 R{4,7} + 11 R{4,15} + 11 R{4,17}
   + 11 R{4,19} + 11 R{4,21} + 11 R{4,23} + 11 R{4,26} + 11 R{4,31}
   + 11 R{4,38} + 11 R{4,41} + 11 R{5,5} + 11 R{5,8} + 11 R{5,10}
   + 11 R{5,12} + 11 R{5,15} + 11 R{5,18} + 11 R{5,27} + 11 R{6,5}
   + 11 R{6,8} + 11 R{6,9} + 11 R{6,25} <= 11
 R2_20: 13 R{0,5} + 13 R{2,5} + 13 R{2,27} + 13 R{2,29} + 13 R{3,1}
   + 13 R{3,2} + 13 R{3,3} + 13 R{3,4} + 13 R{3,5} + 13 R{3,6} + 13 R{3,8}
   + 13 R{3,10} + 13 R{3,12} + 13 R{3,13} + 13 R{3,14} + 13 R{3,16}
   + 13 R{3,17} + 13 R{3,18} + 13 R{3,19} + 13 R{3,20} + 13 R{3,22}
   + 13 R{3,25} + 13 R{3,27} + 13 R{3,29} + 13 R{3,30} + 13 R{3,31}
   + 13 R{3,32} + 13 R{3,34} + 13 R{3,38} + 13 R{3,39} + 13 R{3,40}
   + 13 R{3,41} + 13 R{3,42} + 13 R{4,40} + 13 R{4,42} + 13 R{4,54}
   + 13 R{4,55} + 13 R{5,2} + 13 R{5,3} + 13 R{5,5} + 13 R{5,7}
   + 13 R{5,14} + 13 R{5,16} + 13 R{5,17} + 13 R{5,21} + 13 R{5,24}
   + 13 R{5,29} + 13 R{5,31} + 13 R{6,7} <= 13
 R2_21: <= 0
 R2_22: 10 R{1,12} + 10 R{1,17} + 10 R{1,18} + 10 R{1,19} + 10 R{1,21}
   + 10 R{1,23} + 10 R{1,24} + 10 R{1,28} + 10 R{2,13} + 10 R{2,15}
   + 10 R{2,26} + 10 R{3,18} + 10 R{3,35} + 10 R{4,14} + 10 R{4,16}
   + 10 R{4,18} + 10 R{4,21} + 10 R{4,40} + 10 R{4,44} + 10 R{4,46}
   + 10 R{4,50} + 10 R{4,54} + 10 R{4,55} + 10 R{6,20} + 10 R{6,27}
   + 10 R{6,39} + 10 R{6,48} + 10 R{6,50} <= 10
 R2_23: 14 R{0,1} + 14 R{0,2} + 14 R{0,16} + 14 R{0,17} + 14 R{0,24}
   + 14 R{2,0} + 14 R{2,1} + 14 R{2,6} + 14 R{2,7} + 14 R{2,8} + 14 R{2,9}
   + 14 R{2,25} + 14 R{2,28} + 14 R{4,4} + 14 R{4,7} + 14 R{4,8}
   + 14 R{4,19} + 14 R{4,20} + 14 R{4,46} + 14 R{6,2} + 14 R{6,3}
   + 14 R{6,5} + 14 R{6,7} + 14 R{6,10} + 14 R{6,13} + 14 R{6,15}
   + 14 R{6,16} + 14 R{6,19} + 14 R{6,20} + 14 R{6,21} + 14 R{6,26}
   + 14 R{6,29} + 14 R{6,30} + 14 R{6,32} + 14 R{6,33} + 14 R{6,35}
   + 14 R{6,40} + 14 R{6,42} + 14 R{6,50} + 14 R{6,51} + 14 R{6,52}
   + 14 R{6,54} <= 14
 R2_24: <= 10
 R2_25: 13 R{0,10} + 13 R{0,14} + 13 R{0,20} + 13 R{1,4} + 13 R{1,7}
   + 13 R{1,10} + 13 R{1,12} + 13 R{1,14} + 13 R{1,16} + 13 R{1,17}
   + 13 R{1,18} + 13 R{1,23} + 13 R{1,24} + 13 R{1,28} + 13 R{3,8}
   + 13 R{3,15} + 13 R{3,35} + 13 R{4,1} + 13 R{4,2} + 13 R{4,3}
   + 13 R{4,4} + 13 R{4,5} + 13 R{4,6} + 13 R{4,7} + 13 R{4,8} + 13 R{4,9}
   + 13 R{4,10} + 13 R{4,11} + 13 R{4,12} + 13 R{4,13} + 13 R{4,15}
   + 13 R{4,17} + 13 R{4,19} + 13 R{4,20} + 13 R{4,23} + 13 R{4,24}
   + 13 R{4,26} + 13 R{4,28} + 13 R{4,30} + 13 R{4,33} + 13 R{4,35}
   + 13 R{4,37} + 13 R{4,39} + 13 R{4,49} + 13 R{4,51} + 13 R{5,22}
   + 13 R{5,25} + 13 R{6,44} <= 13
 R2_26: 6 R{1,1} + 6 R{1,2} + 6 R{1,3} + 6 R{1,5} + 6 R{1,8} + 6 R{1,9}
   + 6 R{1,11} + 6 R{1,15} + 6 R{1,22} + 6 R{1,25} + 6 R{2,11} + 6 R{2,17}
   + 6 R{3,23} + 6 R{3,25} + 6 R{3,27} + 6 R{3,30} + 6 R{3,38} + 6 R{4,25}
   + 6 R{4,27} + 6 R{4,29} + 6 R{4,32} + 6 R{4,36} + 6 R{4,43} + 6 R{5,14}
   + 6 R{5,19} + 6 R{5,22} + 6 R{5,23} + 6 R{5,30} + 6 R{6,35} <= 6
 R2_27: 5 R{0,14} + 5 R{0,27} + 5 R{1,4} + 5 R{1,10} + 5 R{1,12}
   + 5 R{1,14} + 5 R{1,15} + 5 R{1,18} + 5 R{1,19} + 5 R{1,20} + 5 R{1,21}
   + 5 R{1,23} + 5 R{1,25} + 5 R{1,26} + 5 R{1,27} + 5 R{3,4} + 5 R{3,6}
   + 5 R{3,11} + 5 R{3,13} + 5 R{3,14} + 5 R{3,16} + 5 R{3,20} + 5 R{3,21}
   + 5 R{3,24} + 5 R{3,27} + 5 R{3,29} + 5 R{3,32} + 5 R{3,33} + 5 R{3,37}
   + 5 R{3,38} + 5 R{3,40} + 5 R{3,42} + 5 R{4,11} + 5 R{4,23} + 5 R{4,24}
   + 5 R{4,25} + 5 R{4,26} + 5 R{4,28} + 5 R{4,30} + 5 R{4,31} + 5 R{4,32}
   + 5 R{4,34} + 5 R{4,36} + 5 R{4,41} + 5 R{4,42} + 5 R{4,43} + 5 R{4,45}
   + 5 R{4,46} + 5 R{4,47} + 5 R{4,48} + 5 R{4,49} + 5 R{4,51} + 5 R{4,52}
   + 5 R{4,53} + 5 R{5,3} + 5 R{5,4} + 5 R{5,5} + 5 R{5,8} + 5 R{5,10}
   + 5 R{5,11} + 5 R{5,12} + 5 R{5,16} + 5 R{5,17} + 5 R{5,19} + 5 R{5,22}
   + 5 R{5,24} + 5 R{5,27} + 5 R{5,29} + 5 R{5,30} + 5 R{6,6} + 5 R{6,9}
   + 5 R{6,11} + 5 R{6,22} + 5 R{6,28} + 5 R{6,32} + 5 R{6,41} + 5 R{6,43}
   + 5 R{6,49} <= 5
 R2_28: <= 0
 R2_29: <= 0
 R2_30: <= 0
 R2_31: 6 R{3,34} + 6 R{6,1} + 6 R{6,2} + 6 R{6,4} + 6 R{6,5} + 6 R{6,6}
   + 6 R{6,7} + 6 R{6,8} + 6 R{6,9} + 6 R{6,10} + 6 R{6,11} + 6 R{6,12}
   + 6 R{6,14} + 6 R{6,15} + 6 R{6,16} + 6 R{6,17} + 6 R{6,18} + 6 R{6,19}
   + 6 R{6,20} + 6 R{6,21} + 6 R{6,22} + 6 R{6,23} + 6 R{6,24} + 6 R{6,25}
   + 6 R{6,26} + 6 R{6,27} + 6 R{6,28} + 6 R{6,29} + 6 R{6,30} + 6 R{6,31}
   + 6 R{6,33} + 6 R{6,34} + 6 R{6,35} + 6 R{6,37} + 6 R{6,38} + 6 R{6,39}
   + 6 R{6,40} + 6 R{6,41} + 6 R{6,42} + 6 R{6,43} + 6 R{6,44} + 6 R{6,45}
   + 6 R{6,46} + 6 R{6,47} + 6 R{6,50} + 6 R{6,51} + 6 R{6,54} <= 6
 R2_32: 7 R{0,4} + 7 R{0,5} + 7 R{0,8} + 7 R{2,13} + 7 R{3,20} + 7 R{3,33}
   + 7 R{4,52} + 7 R{5,8} + 7 R{5,10} + 7 R{5,11} + 7 R{5,12} + 7 R{5,14}
   + 7 R{5,19} + 7 R{5,23} + 7 R{5,24} + 7 R{5,28} + 7 R{5,30} + 7 R{5,31}
   <= 7
 R2_33: 12 R{1,27} + 12 R{3,5} + 12 R{3,9} + 12 R{3,12} + 12 R{3,13}
   + 12 R{3,14} + 12 R{3,16} + 12 R{3,17} + 12 R{3,21} + 12 R{3,22}
   + 12 R{3,28} + 12 R{3,29} + 12 R{3,36} + 12 R{3,37} + 12 R{3,40}
   + 12 R{3,42} + 12 R{4,25} + 12 R{4,33} + 12 R{4,36} + 12 R{4,45}
   + 12 R{4,53} + 12 R{5,6} + 12 R{5,8} + 12 R{5,10} + 12 R{5,12}
   + 12 R{5,19} + 12 R{5,20} + 12 R{5,27} + 12 R{5,30} + 12 R{6,14}
   + 12 R{6,24} + 12 R{6,38} <= 12
 R2_34: 5 R{1,4} + 5 R{1,7} + 5 R{1,10} + 5 R{1,14} + 5 R{2,13} + 5 R{3,14}
   + 5 R{3,17} + 5 R{3,29} + 5 R{3,40} + 5 R{3,42} + 5 R{4,14} + 5 R{4,52}
   + 5 R{6,13} + 5 R{6,15} + 5 R{6,21} <= 5
 R2_35: 13 R{4,12} + 13 R{4,13} + 13 R{5,6} + 13 R{5,8} + 13 R{5,20}
   + 13 R{6,14} + 13 R{6,44} <= 13
 R2_36: <= 0
 R2_37: 5 R{1,9} + 5 R{3,28} + 5 R{3,33} + 5 R{4,30} + 5 R{4,46}
   + 5 R{4,47} + 5 R{4,50} + 5 R{5,1} + 5 R{5,6} + 5 R{5,11} + 5 R{5,12}
   + 5 R{5,13} + 5 R{5,19} + 5 R{5,20} + 5 R{5,22} + 5 R{5,25} + 5 R{5,26}
   + 5 R{5,27} + 5 R{5,30} + 5 R{6,31} + 5 R{6,43} + 5 R{6,45} + 5 R{6,47}
   + 5 R{6,48} + 5 R{6,53} <= 5
 R2_38: <= 0
 R2_39: <= 0
 R2_40: 15 R{1,22} + 15 R{1,26} + 15 R{1,27} + 15 R{2,3} + 15 R{2,4}
   + 15 R{2,5} + 15 R{2,11} + 15 R{2,13} + 15 R{2,17} + 15 R{2,27}
   + 15 R{2,29} + 15 R{3,31} + 15 R{3,39} + 15 R{4,21} + 15 R{4,44}
   + 15 R{4,46} + 15 R{4,51} + 15 R{5,13} + 15 R{5,23} + 15 R{5,28} <= 15
 R2_41: 5 R{0,15} + 5 R{0,16} + 5 R{0,21} + 5 R{0,27} + 5 R{1,4} + 5 R{1,7}
   + 5 R{1,23} + 5 R{2,16} + 5 R{2,21} + 5 R{2,23} + 5 R{2,24} + 5 R{3,2}
   + 5 R{3,3} + 5 R{3,6} + 5 R{3,7} + 5 R{3,8} + 5 R{3,10} + 5 R{3,11}
   + 5 R{3,15} + 5 R{3,23} + 5 R{3,25} + 5 R{3,26} + 5 R{3,35} + 5 R{3,41}
   + 5 R{4,17} + 5 R{4,22} + 5 R{4,27} + 5 R{4,28} + 5 R{4,29} + 5 R{4,31}
   + 5 R{4,32} + 5 R{4,34} + 5 R{4,38} + 5 R{4,43} + 5 R{4,48} + 5 R{5,26}
   + 5 R{6,4} + 5 R{6,10} + 5 R{6,12} + 5 R{6,15} + 5 R{6,17} + 5 R{6,21}
   + 5 R{6,22} + 5 R{6,23} + 5 R{6,25} + 5 R{6,26} + 5 R{6,28} + 5 R{6,30}
   + 5 R{6,31} + 5 R{6,37} + 5 R{6,41} + 5 R{6,43} + 5 R{6,44} + 5 R{6,46}
   <= 5
 R2_42: 4 R{2,3} + 4 R{2,4} + 4 R{2,5} + 4 R{2,11} + 4 R{2,13} + 4 R{2,17}
   + 4 R{2,27} + 4 R{2,29} <= 4
 R2_43: <= 0
 R2_44: <= 0
 R2_45: <= 0
 R2_46: 9 R{0,6} + 9 R{0,9} + 9 R{0,10} + 9 R{0,13} + 9 R{0,17} + 9 R{2,8}
   + 9 R{2,10} + 9 R{2,12} + 9 R{2,18} + 9 R{2,20} + 9 R{3,15} + 9 R{4,5}
   + 9 R{4,15} + 9 R{4,22} + 9 R{4,29} + 9 R{4,34} + 9 R{4,37} + 9 R{4,43}
   + 9 R{4,46} + 9 R{6,13} + 9 R{6,21} <= 9
 R2_47: 7 R{1,1} + 7 R{1,2} + 7 R{1,3} + 7 R{1,25} <= 7
 R2_48: 4 R{4,1} + 4 R{4,2} + 4 R{4,3} + 4 R{4,4} + 4 R{4,5} + 4 R{4,6}
   + 4 R{4,7} + 4 R{4,8} + 4 R{4,9} + 4 R{4,11} + 4 R{4,15} + 4 R{4,16}
   + 4 R{4,17} + 4 R{4,19} + 4 R{4,20} + 4 R{4,23} + 4 R{4,24} + 4 R{4,25}
   + 4 R{4,27} + 4 R{4,28} + 4 R{4,31} + 4 R{4,32} + 4 R{4,33} + 4 R{4,35}
   + 4 R{4,36} + 4 R{4,37} + 4 R{4,38} + 4 R{4,39} + 4 R{4,41} + 4 R{4,45}
   + 4 R{4,46} + 4 R{4,47} + 4 R{4,48} + 4 R{4,49} + 4 R{4,53} + 4 R{6,15}
   + 4 R{6,29} + 4 R{6,33} + 4 R{6,34} + 4 R{6,40} + 4 R{6,51} + 4 R{6,52}
   + 4 R{6,54} <= 4
 R2_49: <= 0
 R2_50: <= 0
 R2_51: 11 R{1,11} + 11 R{1,12} + 11 R{1,17} + 11 R{1,18} + 11 R{1,20}
   + 11 R{1,24} + 11 R{1,26} + 11 R{1,27} + 11 R{1,28} + 11 R{3,23}
   + 11 R{3,34} + 11 R{4,30} + 11 R{5,14} + 11 R{5,20} + 11 R{5,23}
   + 11 R{5,25} + 11 R{5,26} + 11 R{5,28} + 11 R{5,31} <= 11
 R2_52: 10 R{0,16} + 10 R{0,19} + 10 R{0,27} + 10 R{2,14} + 10 R{4,24}
   + 10 R{4,26} + 10 R{4,29} + 10 R{4,35} + 10 R{4,36} + 10 R{4,42}
   + 10 R{4,45} + 10 R{4,49} + 10 R{4,50} + 10 R{4,52} + 10 R{4,53}
   + 10 R{6,50} <= 10
 R2_53: 13 R{4,1} + 13 R{4,2} + 13 R{4,4} + 13 R{4,6} + 13 R{4,7}
   + 13 R{4,8} + 13 R{4,10} + 13 R{4,14} + 13 R{4,15} + 13 R{4,19}
   + 13 R{4,23} + 13 R{4,24} + 13 R{4,26} + 13 R{4,30} + 13 R{4,51} <= 13
 R2_54: 9 R{1,26} + 9 R{1,27} + 9 R{3,1} + 9 R{3,2} + 9 R{3,3} + 9 R{3,4}
   + 9 R{3,5} + 9 R{3,7} + 9 R{3,9} + 9 R{3,10} + 9 R{3,11} + 9 R{3,13}
   + 9 R{3,14} + 9 R{3,15} + 9 R{3,16} + 9 R{3,18} + 9 R{3,19} + 9 R{3,21}
   + 9 R{3,23} + 9 R{3,25} + 9 R{3,26} + 9 R{3,28} + 9 R{3,30} + 9 R{3,31}
   + 9 R{3,35} + 9 R{3,36} + 9 R{3,37} + 9 R{3,39} + 9 R{3,41} + 9 R{4,51}
   + 9 R{5,25} + 9 R{5,26} + 9 R{6,23} + 9 R{6,36} + 9 R{6,49} <= 9
 R2_55: 8 R{1,20} + 8 R{1,21} + 8 R{1,26} + 8 R{2,16} + 8 R{2,21}
   + 8 R{3,23} + 8 R{3,25} + 8 R{3,27} + 8 R{3,30} + 8 R{3,31} + 8 R{3,39}
   + 8 R{4,41} + 8 R{4,46} + 8 R{4,47} + 8 R{4,52} + 8 R{6,36} + 8 R{6,48}
   + 8 R{6,49} <= 8
 R2_56: <= 6
 R2_57: <= 0
 R2_58: 15 R{0,20} + 15 R{0,21} + 15 R{0,22} + 15 R{1,17} + 15 R{1,24}
   + 15 R{1,28} + 15 R{2,19} + 15 R{2,20} + 15 R{2,21} + 15 R{2,22}
   + 15 R{2,26} + 15 R{4,13} + 15 R{4,39} + 15 R{4,42} + 15 R{4,46}
   + 15 R{4,50} + 15 R{4,52} + 15 R{6,36} + 15 R{6,47} + 15 R{6,48}
   + 15 R{6,49} + 15 R{6,53} <= 15
 R2_59: 10 R{0,10} + 10 R{1,4} + 10 R{1,10} + 10 R{1,12} + 10 R{1,16}
   + 10 R{1,20} + 10 R{3,15} + 10 R{3,16} + 10 R{4,12} + 10 R{4,13}
   + 10 R{4,39} + 10 R{4,42} + 10 R{4,50} + 10 R{4,52} + 10 R{6,12}
   + 10 R{6,17} + 10 R{6,22} + 10 R{6,23} + 10 R{6,25} + 10 R{6,28}
   + 10 R{6,31} + 10 R{6,32} + 10 R{6,37} + 10 R{6,41} + 10 R{6,44} <= 10
 R2_60: 13 R{2,26} + 13 R{4,52} <= 13
 R2_61: 9 R{0,9} + 9 R{0,10} + 9 R{2,6} + 9 R{2,8} + 9 R{2,9} + 9 R{2,12}
   + 9 R{2,24} + 9 R{2,25} + 9 R{3,15} + 9 R{3,35} + 9 R{4,6} + 9 R{4,10}
   + 9 R{4,12} + 9 R{4,14} + 9 R{4,18} + 9 R{4,21} + 9 R{4,30} + 9 R{4,40}
   + 9 R{4,44} + 9 R{4,51} + 9 R{4,54} + 9 R{4,55} + 9 R{5,12} <= 9
 R2_62: 10 R{6,12} + 10 R{6,17} + 10 R{6,22} + 10 R{6,23} + 10 R{6,25}
   + 10 R{6,28} + 10 R{6,31} + 10 R{6,37} + 10 R{6,41} + 10 R{6,44} <= 10
 R2_63: <= 0
 R2_64: <= 0
 R2_65: 5 R{1,7} + 5 R{1,17} + 5 R{1,26} + 5 R{2,0} + 5 R{2,1} + 5 R{2,9}
   + 5 R{2,18} + 5 R{2,22} + 5 R{4,21} + 5 R{4,25} + 5 R{4,30} + 5 R{4,32}
   + 5 R{4,36} + 5 R{4,45} + 5 R{4,47} + 5 R{4,49} + 5 R{4,53} + 5 R{5,12}
   + 5 R{5,19} + 5 R{5,22} + 5 R{5,27} + 5 R{6,1} + 5 R{6,2} + 5 R{6,3}
   + 5 R{6,5} + 5 R{6,6} + 5 R{6,7} + 5 R{6,8} + 5 R{6,9} + 5 R{6,10}
   + 5 R{6,11} + 5 R{6,12} + 5 R{6,13} + 5 R{6,15} + 5 R{6,16} + 5 R{6,17}
   + 5 R{6,18} + 5 R{6,19} + 5 R{6,22} + 5 R{6,24} + 5 R{6,26} + 5 R{6,27}
   + 5 R{6,29} + 5 R{6,31} + 5 R{6,32} + 5 R{6,35} + 5 R{6,36} + 5 R{6,38}
   + 5 R{6,42} + 5 R{6,45} + 5 R{6,46} + 5 R{6,47} + 5 R{6,49} + 5 R{6,50}
   + 5 R{6,53} <= 5
 R2_66: 7 R{1,5} + 7 R{3,7} + 7 R{3,24} + 7 R{3,26} + 7 R{4,33} + 7 R{4,50}
   + 7 R{5,17} + 7 R{6,15} + 7 R{6,21} + 7 R{6,29} + 7 R{6,33} + 7 R{6,34}
   + 7 R{6,36} + 7 R{6,40} + 7 R{6,48} + 7 R{6,54} <= 7
 R2_67: 3 R{0,1} + 3 R{0,2} + 3 R{0,6} + 3 R{0,7} + 3 R{0,10} + 3 R{0,11}
   + 3 R{0,16} + 3 R{0,18} + 3 R{0,19} + 3 R{0,24} + 3 R{0,26} + 3 R{0,27}
   + 3 R{2,0} + 3 R{2,1} + 3 R{2,6} + 3 R{2,7} + 3 R{2,10} + 3 R{2,15}
   + 3 R{2,28} + 3 R{3,15} + 3 R{3,35} + 3 R{4,18} + 3 R{4,21} + 3 R{4,33}
   + 3 R{4,40} + 3 R{4,44} + 3 R{4,54} + 3 R{4,55} + 3 R{6,8} + 3 R{6,9}
   + 3 R{6,16} + 3 R{6,18} + 3 R{6,27} + 3 R{6,32} + 3 R{6,35} + 3 R{6,39}
   + 3 R{6,40} + 3 R{6,46} + 3 R{6,51} + 3 R{6,52} <= 3
 R2_68: 6 R{1,11} + 6 R{1,13} + 6 R{3,36} + 6 R{4,1} + 6 R{4,4} + 6 R{4,6}
   + 6 R{4,7} + 6 R{4,8} + 6 R{4,9} + 6 R{4,10} + 6 R{4,15} + 6 R{4,18}
   + 6 R{4,19} + 6 R{4,20} + 6 R{4,23} + 6 R{4,24} + 6 R{4,25} + 6 R{4,26}
   + 6 R{4,33} + 6 R{4,36} + 6 R{4,37} + 6 R{4,40} + 6 R{4,45} + 6 R{4,47}
   + 6 R{4,51} + 6 R{4,52} + 6 R{5,25} + 6 R{5,26} + 6 R{6,45} <= 6
 R2_69: 7 R{0,14} + 7 R{2,13} + 7 R{3,9} + 7 R{4,1} + 7 R{4,2} + 7 R{4,3}
   + 7 R{4,4} + 7 R{4,5} + 7 R{4,6} + 7 R{4,7} + 7 R{4,8} + 7 R{4,9}
   + 7 R{4,10} + 7 R{4,12} + 7 R{4,14} + 7 R{4,15} + 7 R{4,16} + 7 R{4,17}
   + 7 R{4,18} + 7 R{4,22} + 7 R{4,27} + 7 R{4,29} + 7 R{4,33} + 7 R{4,35}
   + 7 R{4,37} + 7 R{4,38} + 7 R{4,40} + 7 R{4,54} + 7 R{4,55} + 7 R{5,6}
   + 7 R{5,8} + 7 R{5,10} + 7 R{5,11} <= 7
 R2_70: 11 R{6,1} + 11 R{6,2} + 11 R{6,3} + 11 R{6,5} + 11 R{6,6}
   + 11 R{6,7} + 11 R{6,8} + 11 R{6,9} + 11 R{6,16} + 11 R{6,18}
   + 11 R{6,19} + 11 R{6,30} + 11 R{6,32} + 11 R{6,35} + 11 R{6,42} <= 11
 R2_71: 7 R{3,1} + 7 R{3,2} + 7 R{3,3} + 7 R{3,5} + 7 R{3,6} + 7 R{3,7}
   + 7 R{3,8} + 7 R{3,10} + 7 R{3,12} + 7 R{3,17} + 7 R{3,18} + 7 R{3,20}
   + 7 R{3,22} + 7 R{3,24} + 7 R{3,32} + 7 R{3,41} + 7 R{4,18} + 7 R{4,50}
   + 7 R{6,2} + 7 R{6,3} + 7 R{6,5} + 7 R{6,7} + 7 R{6,8} + 7 R{6,10}
   + 7 R{6,12} + 7 R{6,13} + 7 R{6,15} + 7 R{6,17} + 7 R{6,19} + 7 R{6,20}
   + 7 R{6,21} + 7 R{6,23} + 7 R{6,25} + 7 R{6,27} + 7 R{6,29} + 7 R{6,31}
   + 7 R{6,32} + 7 R{6,33} + 7 R{6,39} + 7 R{6,42} + 7 R{6,45} + 7 R{6,46}
   + 7 R{6,47} + 7 R{6,50} + 7 R{6,53} + 7 R{6,54} <= 7
 R2_72: <= 0
 R2_73: 11 R{0,9} + 11 R{0,26} + 11 R{2,18} + 11 R{4,32} <= 11
 R2_74: 5 R{5,1} + 5 R{5,2} + 5 R{5,6} + 5 R{5,7} + 5 R{5,13} + 5 R{5,15}
   + 5 R{5,16} + 5 R{5,20} + 5 R{5,24} + 5 R{5,25} + 5 R{5,26} + 5 R{5,29}
   <= 5
 R2_75: 8 R{6,1} + 8 R{6,2} + 8 R{6,3} + 8 R{6,4} + 8 R{6,5} + 8 R{6,6}
   + 8 R{6,7} + 8 R{6,8} + 8 R{6,9} + 8 R{6,10} + 8 R{6,11} + 8 R{6,13}
   + 8 R{6,14} + 8 R{6,15} + 8 R{6,16} + 8 R{6,18} + 8 R{6,19} + 8 R{6,20}
   + 8 R{6,21} + 8 R{6,24} + 8 R{6,26} + 8 R{6,27} + 8 R{6,29} + 8 R{6,30}
   + 8 R{6,32} + 8 R{6,33} + 8 R{6,34} + 8 R{6,35} + 8 R{6,36} + 8 R{6,38}
   + 8 R{6,39} + 8 R{6,40} + 8 R{6,42} + 8 R{6,43} + 8 R{6,45} + 8 R{6,46}
   + 8 R{6,47} + 8 R{6,48} + 8 R{6,49} + 8 R{6,50} + 8 R{6,51} + 8 R{6,52}
   + 8 R{6,53} + 8 R{6,54} <= 8
 R2_76: 12 R{0,4} + 12 R{3,3} + 12 R{3,8} + 12 R{3,10} + 12 R{3,12}
   + 12 R{3,13} + 12 R{3,14} + 12 R{3,16} + 12 R{3,17} + 12 R{3,21}
   + 12 R{3,23} + 12 R{3,25} + 12 R{3,27} + 12 R{3,28} + 12 R{3,30}
   + 12 R{3,31} + 12 R{3,32} + 12 R{3,34} + 12 R{3,36} + 12 R{3,39}
   + 12 R{3,40} + 12 R{3,41} + 12 R{3,42} + 12 R{5,7} + 12 R{5,15}
   + 12 R{5,16} + 12 R{5,17} + 12 R{5,21} + 12 R{5,25} + 12 R{5,26}
   + 12 R{6,17} + 12 R{6,19} + 12 R{6,23} + 12 R{6,26} + 12 R{6,30}
   + 12 R{6,31} + 12 R{6,41} + 12 R{6,42} + 12 R{6,44} + 12 R{6,50} <= 12
 R2_77: 7 R{1,2} + 7 R{1,5} + 7 R{1,10} + 7 R{1,14} + 7 R{1,22} + 7 R{2,4}
   + 7 R{2,5} + 7 R{2,29} + 7 R{3,21} + 7 R{3,28} + 7 R{3,36} + 7 R{4,2}
   + 7 R{4,3} + 7 R{4,11} + 7 R{4,17} + 7 R{4,22} + 7 R{4,25} + 7 R{4,27}
   + 7 R{4,28} + 7 R{4,29} + 7 R{4,31} + 7 R{4,32} + 7 R{4,34} + 7 R{4,36}
   + 7 R{4,38} + 7 R{4,41} + 7 R{4,42} + 7 R{4,43} + 7 R{4,45} + 7 R{4,46}
   + 7 R{4,47} + 7 R{4,48} + 7 R{4,49} + 7 R{4,52} + 7 R{4,53} + 7 R{5,18}
   + 7 R{6,3} + 7 R{6,13} + 7 R{6,32} + 7 R{6,37} <= 7
Bounds
End
